10J3M/DAT/10J3MNTL-13.dat
10 3
30.8811 30.8811
21.7484 21.7484
25.4255 25.4255
23.9308 23.9308
19.6008 19.6008
23.7191 23.7191
21.2993 21.2993
25.1227 25.1227
30.0123 30.0123
15.2602 15.2602
59.2501