10J3M/SOL/10J3MNTL-13.sol
solution status: optimal solution found
objective value:                              58.7872
x#1#1                                               1 	(obj:0)
x#2#3                               0.219013209446279 	(obj:0)
x#3#2                               0.602964188495331 	(obj:0)
x#5#2                                               1 	(obj:0)
x#6#1                                               1 	(obj:0)
x#7#1                                               1 	(obj:0)
x#8#3                                               1 	(obj:0)
x#9#1                               0.119298245614035 	(obj:0)
x#9#2                               0.880701754385965 	(obj:0)
x#10#3                                              1 	(obj:0)
z                                             58.7872 	(obj:1)
